(set-info :smt-lib-version 2.6)
(set-info :category "crafted")
(set-info :source |Christoph M. Wintersteiger (cwinter@microsoft.com). Randomly generated floating-point testcases.|)
; Rounding mode: to positive
; Precision: double (11/53)
; X = -zero {- 0 -1023 (-0)}
; Y = -1.0201552478392554856867491253069601953029632568359375p-296 {- 90771166658431 -296 (-8.01286e-090)}
; -zero / -1.0201552478392554856867491253069601953029632568359375p-296 == +zero
; [HW: +zero] 

; mpf : + 0 -1023
; mpfd: + 0 -1023 (0) class: +0
; hwf : + 0 -1023 (0) class: +0

(set-logic QF_FP)
(set-info :status unsat)
(define-sort FPN () (_ FloatingPoint 11 53))
(declare-fun x () FPN)
(declare-fun y () FPN)
(declare-fun r () FPN)
(assert (= x (fp #b1 #b00000000000 #b0000000000000000000000000000000000000000000000000000)))
(assert (= y (fp #b1 #b01011010111 #b0000010100101000111001001111001001001111111101111111)))
(assert (= r (fp #b0 #b00000000000 #b0000000000000000000000000000000000000000000000000000)))
(assert  (not (= (fp.div roundTowardPositive x y) r)))
(check-sat)
(exit)
